p tw 266 423
1 2
1 61
1 70
2 64
2 70
3 4
3 182
3 184
4 167
4 168
5 6
5 7
5 35
6 32
6 33
7 33
7 35
8 9
8 11
8 225
9 48
9 80
9 81
10 14
10 57
10 58
11 80
11 206
12 13
12 63
12 265
13 82
13 98
14 61
14 204
15 16
15 207
15 224
16 99
16 208
17 207
17 208
17 224
18 19
18 21
18 22
19 20
19 23
20 24
20 218
21 22
21 25
22 23
22 25
23 24
23 26
24 28
25 26
25 27
26 27
26 28
27 28
29 30
29 33
29 257
30 31
30 228
31 32
31 214
32 36
34 36
34 218
34 247
35 41
36 37
37 44
37 45
37 53
38 39
38 98
38 109
39 97
39 108
40 205
40 209
40 213
41 43
41 230
42 43
42 44
42 230
43 230
44 45
45 58
46 60
46 82
46 204
46 210
47 48
47 50
47 206
47 225
48 225
49 50
49 51
49 57
50 51
51 57
52 53
52 216
52 256
53 256
54 55
54 67
54 68
55 56
55 68
56 68
56 75
58 61
58 67
59 146
59 181
59 182
60 61
60 62
62 63
62 64
63 65
64 69
65 66
65 84
66 71
66 73
67 74
69 71
69 72
70 74
71 72
72 73
73 84
74 142
75 76
75 77
76 77
76 196
77 78
78 79
78 196
79 196
79 197
80 81
81 204
82 219
83 92
83 100
83 265
84 86
85 86
85 89
85 92
85 265
86 87
86 88
87 89
87 94
88 96
88 119
89 90
89 91
90 91
90 92
90 93
91 93
91 94
92 103
93 95
93 103
94 95
94 96
95 104
96 127
96 138
97 100
97 102
98 99
98 172
99 215
100 101
101 102
101 103
102 105
103 104
104 107
104 138
105 106
105 107
106 108
106 113
106 114
107 114
107 139
108 109
109 110
110 112
110 113
111 112
111 176
111 177
112 117
113 115
113 116
114 116
114 144
115 117
115 118
116 118
116 145
117 177
118 145
118 146
119 120
119 121
120 121
120 122
121 123
122 123
122 124
123 125
124 125
124 126
125 128
126 127
126 128
127 129
127 133
128 130
129 130
129 131
130 137
131 134
131 137
132 154
132 192
132 194
133 134
133 135
134 136
135 138
135 139
136 139
136 140
137 141
140 141
140 144
141 142
142 143
143 148
143 149
143 150
144 145
145 147
146 178
146 179
147 150
147 161
147 167
148 151
148 154
149 151
149 152
150 152
151 153
151 155
152 153
152 161
153 162
153 163
154 155
155 156
155 163
156 157
156 159
157 158
157 170
158 159
158 171
159 160
160 171
160 198
161 164
162 165
162 166
163 166
164 165
164 167
164 168
165 185
165 186
166 170
168 185
169 170
169 189
169 191
171 198
172 173
172 207
173 174
173 176
173 215
174 175
174 215
175 176
175 180
177 178
178 179
179 180
180 181
181 183
182 183
183 184
183 190
184 190
185 186
185 187
186 189
187 188
187 189
188 190
188 191
189 191
192 193
192 194
193 195
193 226
194 195
194 227
195 200
196 197
197 203
198 199
199 201
199 227
200 201
200 227
201 202
202 203
202 226
203 226
205 220
205 222
206 225
208 224
209 210
209 211
210 212
211 212
211 213
212 213
214 218
214 231
216 217
216 229
217 260
217 262
219 221
219 223
220 221
220 222
221 223
222 223
228 258
228 259
229 255
229 266
231 232
231 234
232 233
232 235
233 236
233 237
234 235
234 236
235 237
236 237
238 239
238 241
238 256
239 240
239 242
240 242
240 245
241 244
241 246
242 243
243 244
243 245
244 246
245 246
247 248
247 249
248 250
248 253
249 251
249 252
250 252
250 253
251 252
251 253
251 254
254 255
254 266
255 266
257 258
257 259
258 259
260 263
260 264
261 262
261 263
261 264
262 264
263 264
